param Bundling := True ;

set Bundles := 
Bundle1
Bundle2
Bundle3
;

set BundleScenarios[Bundle1] := Scenario1 Scenario2 Scenario3 ;
set BundleScenarios[Bundle2] := Scenario4 Scenario5 Scenario6 ;
set BundleScenarios[Bundle3] := Scenario7 Scenario8 Scenario9 Scenario10 ;
